% Logging successfully configured
=====UNKNOWN=====
% time elapsed: 300.04 s
%%%mzn-stat: initTime=0.018356713
%%%mzn-stat: nodes=493763
%%%mzn-stat: restarts=0
%%%mzn-stat: peakDepth=52
%%%mzn-stat: solveTime=293.750835029
%%%mzn-stat: variables=1458
%%%mzn-stat: propagators=5840
%%%mzn-stat: failures=424388
%%%mzn-stat: propagations=586568697
%%%mzn-stat: nogoods=424388
%%%mzn-stat: numAtomicConstraintsPropagated=0
%%%mzn-stat: circuitNumber4951PropagationsThatFoundConflict=2223
%%%mzn-stat: circuitNumber4951TotalFixedEdgesAtConflict=185859
%%%mzn-stat: circuitNumber4951NumberOfConflicts=2223
%%%mzn-stat: circuitNumber4951PropagationsThatPruned=46493
%%%mzn-stat: circuitNumber4951PropagationsTotal=486710
%%%mzn-stat: AverageConflictSize=16.70848845867461
%%%mzn-stat: NumUnitNogoodsLearned=0
%%%mzn-stat: AverageLearnedNogoodLength=56.08780172860684
%%%mzn-stat: AverageBacktrackAmount=0
%%%mzn-stat: AverageLbd=27.29354977049304
%%%mzn-stat: 2AutonomousSearchNumBackupCalled=0
%%%mzn-stat: 2AutonomousSearchNumPredicatesRemoved=0
%%%mzn-stat: 2AutonomousSearchNumCalls=0
%%%mzn-stat: 2AutonomousSearchNumPredicatesAdded=5394
%%%mzn-stat: 2AutonomousSearchAverageSizeOfHeap=0
%%%mzn-stat: 2AutonomousSearchNumAssignedPredicatesEncountered=0
%%%mzn-stat-end
